(set-logic QF_FPBV)
(set-info :source |Random FP created by PyMPF|)
(set-info :category random)
(set-info :status unsat)
;; fp.from.sbv(BitVec 32)
(declare-const x (_ BitVec 32))
(assert (bvsle x #b01000000011111001000100010111001))
;; x should be 1081903289
(declare-const r Float32)
(assert (= r ((_ to_fp 8 24) RTZ x)))
(assert (not (fp.leq r (fp #b0 #b10011101 #b00000001111100100010001))))
(check-sat)
(exit)
